# Escenario generado automaticamente: adr_extremo

param alpha := 0.5;
param fecha_hoy := 45984;
param s := 100;

set I := P1 P2 P3 P4 P5 P6 P7 P8 P9 P10 P11 P12 P13 P14 P15 P16 P17 P18 P19 P20 P21 P22 P23 P24 P25 P26 P27 P28 P29 P30 P31 P32 P33 P34 P35 P36 P37 P38 P39 P40 P41 P42 P43 P44 P45 P46 P47 P48 P49 P50 P51 P52 P53 P54 P55 P56 P57 P58 P59 P60 P61 P62 P63 P64 P65 P66 P67 P68 P69 P70 P71 P72 P73 P74 P75 P76 P77 P78 P79 P80 P81 P82 P83 P84 P85 P86 P87 P88 P89 P90 P91 P92 P93 P94 P95 P96 P97 P98 P99 P100 P101 P102 P103 P104 P105 P106 P107 P108 P109 P110 P111 P112 P113 P114 P115 P116 P117 P118 P119 P120 P121 P122 P123 P124 P125 P126 P127 P128 P129 P130 P131 P132 P133 P134 P135 P136 P137 P138 P139 P140 P141 P142 P143 P144 P145 P146 P147 P148 P149 P150 P151 P152 P153 P154 P155 P156 P157 P158 P159 P160 P161 P162 P163 P164 P165 P166 P167 P168 P169 P170 P171 P172 P173 P174 P175 P176 P177 P178 P179 P180 P181 P182 P183 P184 P185 P186 P187 P188 P189 P190 P191 P192 P193 P194 P195 P196 P197 P198 P199 P200;
set C := C1 C2 C3 C4 C5 C6 C7 C8 C9 C10 C11 C12 C13 C14 C15;
set J := T1 T2 T3 T4 T5 T6 T7 T8 T9 T10 T11 T12 T13 T14 T15;

param dist_c :=
  'C1' 39
  'C2' 29
  'C3' 89
  'C4' 85
  'C5' 39
  'C6' 34
  'C7' 35
  'C8' 4
  'C9' 28
  'C10' 27
  'C11' 82
  'C12' 19
  'C13' 71
  'C14' 34
  'C15' 40
;

param F :=
  'T1' 350
  'T2' 350
  'T3' 550
  'T4' 550
  'T5' 550
  'T6' 700
  'T7' 350
  'T8' 550
  'T9' 350
  'T10' 700
  'T11' 550
  'T12' 550
  'T13' 700
  'T14' 350
  'T15' 550
;
param ADRmax :=
  'T1' 0
  'T2' 0
  'T3' 0
  'T4' 0
  'T5' 0
  'T6' 5
  'T7' 0
  'T8' 0
  'T9' 0
  'T10' 5
  'T11' 0
  'T12' 0
  'T13' 5
  'T14' 0
  'T15' 0
;
param W :=
  'T1' 1000
  'T2' 1000
  'T3' 2500
  'T4' 2500
  'T5' 2500
  'T6' 3500
  'T7' 1000
  'T8' 2500
  'T9' 1000
  'T10' 3500
  'T11' 2500
  'T12' 2500
  'T13' 3500
  'T14' 1000
  'T15' 2500
;
param V :=
  'T1' 10
  'T2' 10
  'T3' 18
  'T4' 18
  'T5' 18
  'T6' 25
  'T7' 10
  'T8' 18
  'T9' 10
  'T10' 25
  'T11' 18
  'T12' 18
  'T13' 25
  'T14' 10
  'T15' 18
;
param Pmax :=
  'T1' 10
  'T2' 8
  'T3' 9
  'T4' 5
  'T5' 6
  'T6' 7
  'T7' 10
  'T8' 10
  'T9' 6
  'T10' 5
  'T11' 6
  'T12' 10
  'T13' 7
  'T14' 5
  'T15' 5
;

param pes :=
  'P1' 267
  'P2' 102
  'P3' 218
  'P4' 190
  'P5' 145
  'P6' 232
  'P7' 165
  'P8' 300
  'P9' 249
  'P10' 103
  'P11' 265
  'P12' 121
  'P13' 181
  'P14' 177
  'P15' 164
  'P16' 188
  'P17' 139
  'P18' 177
  'P19' 138
  'P20' 258
  'P21' 292
  'P22' 191
  'P23' 300
  'P24' 164
  'P25' 240
  'P26' 255
  'P27' 181
  'P28' 155
  'P29' 250
  'P30' 164
  'P31' 272
  'P32' 124
  'P33' 136
  'P34' 279
  'P35' 237
  'P36' 281
  'P37' 236
  'P38' 296
  'P39' 141
  'P40' 146
  'P41' 120
  'P42' 237
  'P43' 254
  'P44' 153
  'P45' 113
  'P46' 299
  'P47' 139
  'P48' 199
  'P49' 219
  'P50' 250
  'P51' 199
  'P52' 124
  'P53' 116
  'P54' 162
  'P55' 240
  'P56' 204
  'P57' 167
  'P58' 130
  'P59' 137
  'P60' 174
  'P61' 194
  'P62' 208
  'P63' 277
  'P64' 187
  'P65' 185
  'P66' 280
  'P67' 126
  'P68' 255
  'P69' 214
  'P70' 125
  'P71' 260
  'P72' 113
  'P73' 106
  'P74' 144
  'P75' 299
  'P76' 279
  'P77' 231
  'P78' 250
  'P79' 106
  'P80' 205
  'P81' 136
  'P82' 220
  'P83' 117
  'P84' 157
  'P85' 215
  'P86' 220
  'P87' 182
  'P88' 156
  'P89' 280
  'P90' 289
  'P91' 168
  'P92' 211
  'P93' 249
  'P94' 232
  'P95' 135
  'P96' 139
  'P97' 134
  'P98' 103
  'P99' 287
  'P100' 257
  'P101' 297
  'P102' 165
  'P103' 172
  'P104' 252
  'P105' 119
  'P106' 234
  'P107' 230
  'P108' 276
  'P109' 218
  'P110' 156
  'P111' 178
  'P112' 153
  'P113' 147
  'P114' 193
  'P115' 143
  'P116' 206
  'P117' 206
  'P118' 239
  'P119' 216
  'P120' 209
  'P121' 223
  'P122' 169
  'P123' 259
  'P124' 288
  'P125' 180
  'P126' 148
  'P127' 261
  'P128' 282
  'P129' 280
  'P130' 205
  'P131' 294
  'P132' 175
  'P133' 114
  'P134' 107
  'P135' 186
  'P136' 113
  'P137' 236
  'P138' 165
  'P139' 136
  'P140' 125
  'P141' 137
  'P142' 297
  'P143' 163
  'P144' 153
  'P145' 258
  'P146' 295
  'P147' 190
  'P148' 287
  'P149' 266
  'P150' 276
  'P151' 279
  'P152' 206
  'P153' 227
  'P154' 173
  'P155' 157
  'P156' 115
  'P157' 130
  'P158' 120
  'P159' 194
  'P160' 298
  'P161' 299
  'P162' 146
  'P163' 252
  'P164' 191
  'P165' 287
  'P166' 117
  'P167' 276
  'P168' 239
  'P169' 212
  'P170' 189
  'P171' 169
  'P172' 164
  'P173' 171
  'P174' 298
  'P175' 260
  'P176' 143
  'P177' 183
  'P178' 102
  'P179' 234
  'P180' 128
  'P181' 214
  'P182' 225
  'P183' 188
  'P184' 230
  'P185' 274
  'P186' 135
  'P187' 275
  'P188' 160
  'P189' 291
  'P190' 209
  'P191' 194
  'P192' 243
  'P193' 185
  'P194' 193
  'P195' 164
  'P196' 101
  'P197' 263
  'P198' 169
  'P199' 112
  'P200' 137
;
param vol :=
  'P1' 1
  'P2' 1
  'P3' 2
  'P4' 2
  'P5' 1
  'P6' 2
  'P7' 1
  'P8' 2
  'P9' 2
  'P10' 3
  'P11' 1
  'P12' 2
  'P13' 1
  'P14' 3
  'P15' 2
  'P16' 2
  'P17' 1
  'P18' 3
  'P19' 3
  'P20' 3
  'P21' 1
  'P22' 1
  'P23' 2
  'P24' 3
  'P25' 3
  'P26' 2
  'P27' 3
  'P28' 2
  'P29' 3
  'P30' 3
  'P31' 1
  'P32' 1
  'P33' 2
  'P34' 1
  'P35' 3
  'P36' 3
  'P37' 2
  'P38' 1
  'P39' 1
  'P40' 1
  'P41' 2
  'P42' 1
  'P43' 3
  'P44' 3
  'P45' 3
  'P46' 1
  'P47' 1
  'P48' 1
  'P49' 2
  'P50' 3
  'P51' 2
  'P52' 1
  'P53' 3
  'P54' 2
  'P55' 2
  'P56' 2
  'P57' 2
  'P58' 1
  'P59' 1
  'P60' 3
  'P61' 1
  'P62' 2
  'P63' 3
  'P64' 2
  'P65' 1
  'P66' 2
  'P67' 1
  'P68' 1
  'P69' 3
  'P70' 1
  'P71' 1
  'P72' 1
  'P73' 3
  'P74' 2
  'P75' 2
  'P76' 3
  'P77' 2
  'P78' 3
  'P79' 3
  'P80' 2
  'P81' 3
  'P82' 2
  'P83' 2
  'P84' 2
  'P85' 1
  'P86' 3
  'P87' 2
  'P88' 2
  'P89' 2
  'P90' 3
  'P91' 1
  'P92' 3
  'P93' 2
  'P94' 3
  'P95' 2
  'P96' 3
  'P97' 3
  'P98' 2
  'P99' 3
  'P100' 1
  'P101' 2
  'P102' 3
  'P103' 3
  'P104' 1
  'P105' 3
  'P106' 3
  'P107' 3
  'P108' 1
  'P109' 3
  'P110' 2
  'P111' 2
  'P112' 2
  'P113' 2
  'P114' 1
  'P115' 2
  'P116' 3
  'P117' 1
  'P118' 3
  'P119' 2
  'P120' 2
  'P121' 1
  'P122' 2
  'P123' 2
  'P124' 2
  'P125' 3
  'P126' 1
  'P127' 1
  'P128' 1
  'P129' 1
  'P130' 3
  'P131' 3
  'P132' 1
  'P133' 1
  'P134' 1
  'P135' 1
  'P136' 2
  'P137' 3
  'P138' 3
  'P139' 3
  'P140' 1
  'P141' 2
  'P142' 3
  'P143' 3
  'P144' 1
  'P145' 2
  'P146' 2
  'P147' 1
  'P148' 1
  'P149' 1
  'P150' 2
  'P151' 3
  'P152' 2
  'P153' 2
  'P154' 2
  'P155' 3
  'P156' 3
  'P157' 2
  'P158' 2
  'P159' 3
  'P160' 3
  'P161' 3
  'P162' 3
  'P163' 3
  'P164' 2
  'P165' 3
  'P166' 2
  'P167' 1
  'P168' 2
  'P169' 2
  'P170' 1
  'P171' 2
  'P172' 2
  'P173' 3
  'P174' 1
  'P175' 2
  'P176' 1
  'P177' 1
  'P178' 2
  'P179' 2
  'P180' 1
  'P181' 1
  'P182' 3
  'P183' 2
  'P184' 2
  'P185' 2
  'P186' 3
  'P187' 3
  'P188' 1
  'P189' 2
  'P190' 3
  'P191' 3
  'P192' 3
  'P193' 2
  'P194' 1
  'P195' 3
  'P196' 3
  'P197' 1
  'P198' 3
  'P199' 1
  'P200' 3
;
param adr :=
  'P1' 0
  'P2' 0
  'P3' 1
  'P4' 1
  'P5' 0
  'P6' 1
  'P7' 1
  'P8' 1
  'P9' 1
  'P10' 1
  'P11' 0
  'P12' 1
  'P13' 1
  'P14' 1
  'P15' 1
  'P16' 0
  'P17' 0
  'P18' 1
  'P19' 0
  'P20' 0
  'P21' 0
  'P22' 1
  'P23' 0
  'P24' 1
  'P25' 0
  'P26' 0
  'P27' 1
  'P28' 0
  'P29' 1
  'P30' 1
  'P31' 1
  'P32' 0
  'P33' 1
  'P34' 1
  'P35' 1
  'P36' 0
  'P37' 0
  'P38' 0
  'P39' 1
  'P40' 0
  'P41' 0
  'P42' 1
  'P43' 0
  'P44' 0
  'P45' 0
  'P46' 1
  'P47' 1
  'P48' 1
  'P49' 1
  'P50' 1
  'P51' 0
  'P52' 1
  'P53' 0
  'P54' 0
  'P55' 0
  'P56' 0
  'P57' 0
  'P58' 0
  'P59' 0
  'P60' 1
  'P61' 0
  'P62' 0
  'P63' 1
  'P64' 1
  'P65' 1
  'P66' 1
  'P67' 1
  'P68' 0
  'P69' 1
  'P70' 0
  'P71' 0
  'P72' 0
  'P73' 0
  'P74' 0
  'P75' 1
  'P76' 0
  'P77' 1
  'P78' 0
  'P79' 0
  'P80' 1
  'P81' 1
  'P82' 1
  'P83' 1
  'P84' 1
  'P85' 1
  'P86' 0
  'P87' 1
  'P88' 1
  'P89' 1
  'P90' 1
  'P91' 1
  'P92' 0
  'P93' 1
  'P94' 1
  'P95' 0
  'P96' 1
  'P97' 1
  'P98' 0
  'P99' 1
  'P100' 0
  'P101' 1
  'P102' 1
  'P103' 1
  'P104' 1
  'P105' 1
  'P106' 1
  'P107' 1
  'P108' 1
  'P109' 0
  'P110' 0
  'P111' 1
  'P112' 1
  'P113' 1
  'P114' 1
  'P115' 1
  'P116' 1
  'P117' 1
  'P118' 1
  'P119' 1
  'P120' 0
  'P121' 0
  'P122' 0
  'P123' 1
  'P124' 0
  'P125' 1
  'P126' 0
  'P127' 1
  'P128' 0
  'P129' 1
  'P130' 1
  'P131' 1
  'P132' 0
  'P133' 0
  'P134' 1
  'P135' 1
  'P136' 0
  'P137' 1
  'P138' 1
  'P139' 1
  'P140' 0
  'P141' 0
  'P142' 1
  'P143' 0
  'P144' 1
  'P145' 1
  'P146' 0
  'P147' 0
  'P148' 1
  'P149' 0
  'P150' 0
  'P151' 0
  'P152' 0
  'P153' 1
  'P154' 1
  'P155' 0
  'P156' 1
  'P157' 1
  'P158' 0
  'P159' 1
  'P160' 1
  'P161' 1
  'P162' 0
  'P163' 0
  'P164' 1
  'P165' 1
  'P166' 0
  'P167' 0
  'P168' 0
  'P169' 1
  'P170' 1
  'P171' 1
  'P172' 1
  'P173' 1
  'P174' 1
  'P175' 1
  'P176' 0
  'P177' 0
  'P178' 1
  'P179' 1
  'P180' 1
  'P181' 1
  'P182' 0
  'P183' 1
  'P184' 0
  'P185' 0
  'P186' 1
  'P187' 0
  'P188' 0
  'P189' 0
  'P190' 1
  'P191' 0
  'P192' 1
  'P193' 1
  'P194' 1
  'P195' 1
  'P196' 1
  'P197' 0
  'P198' 1
  'P199' 1
  'P200' 0
;
param t :=
  'P1' 350
  'P2' 350
  'P3' 350
  'P4' 350
  'P5' 350
  'P6' 350
  'P7' 350
  'P8' 350
  'P9' 350
  'P10' 350
  'P11' 350
  'P12' 350
  'P13' 350
  'P14' 350
  'P15' 350
  'P16' 350
  'P17' 350
  'P18' 350
  'P19' 350
  'P20' 350
  'P21' 350
  'P22' 350
  'P23' 350
  'P24' 350
  'P25' 350
  'P26' 350
  'P27' 350
  'P28' 350
  'P29' 350
  'P30' 350
  'P31' 350
  'P32' 350
  'P33' 350
  'P34' 350
  'P35' 350
  'P36' 350
  'P37' 350
  'P38' 350
  'P39' 350
  'P40' 350
  'P41' 350
  'P42' 350
  'P43' 350
  'P44' 350
  'P45' 350
  'P46' 350
  'P47' 350
  'P48' 350
  'P49' 350
  'P50' 350
  'P51' 350
  'P52' 350
  'P53' 350
  'P54' 350
  'P55' 350
  'P56' 350
  'P57' 350
  'P58' 350
  'P59' 350
  'P60' 350
  'P61' 350
  'P62' 350
  'P63' 350
  'P64' 350
  'P65' 350
  'P66' 350
  'P67' 350
  'P68' 350
  'P69' 350
  'P70' 350
  'P71' 350
  'P72' 350
  'P73' 350
  'P74' 350
  'P75' 350
  'P76' 350
  'P77' 350
  'P78' 350
  'P79' 350
  'P80' 350
  'P81' 350
  'P82' 350
  'P83' 350
  'P84' 350
  'P85' 350
  'P86' 350
  'P87' 350
  'P88' 350
  'P89' 350
  'P90' 350
  'P91' 350
  'P92' 350
  'P93' 350
  'P94' 350
  'P95' 350
  'P96' 350
  'P97' 350
  'P98' 350
  'P99' 350
  'P100' 350
  'P101' 350
  'P102' 350
  'P103' 350
  'P104' 350
  'P105' 350
  'P106' 350
  'P107' 350
  'P108' 350
  'P109' 350
  'P110' 350
  'P111' 350
  'P112' 350
  'P113' 350
  'P114' 350
  'P115' 350
  'P116' 350
  'P117' 350
  'P118' 350
  'P119' 350
  'P120' 350
  'P121' 350
  'P122' 350
  'P123' 350
  'P124' 350
  'P125' 350
  'P126' 350
  'P127' 350
  'P128' 350
  'P129' 350
  'P130' 350
  'P131' 350
  'P132' 350
  'P133' 350
  'P134' 350
  'P135' 350
  'P136' 350
  'P137' 350
  'P138' 350
  'P139' 350
  'P140' 350
  'P141' 350
  'P142' 350
  'P143' 350
  'P144' 350
  'P145' 350
  'P146' 350
  'P147' 350
  'P148' 350
  'P149' 350
  'P150' 350
  'P151' 350
  'P152' 350
  'P153' 350
  'P154' 350
  'P155' 350
  'P156' 350
  'P157' 350
  'P158' 350
  'P159' 350
  'P160' 350
  'P161' 350
  'P162' 350
  'P163' 350
  'P164' 350
  'P165' 350
  'P166' 350
  'P167' 350
  'P168' 350
  'P169' 350
  'P170' 350
  'P171' 350
  'P172' 350
  'P173' 350
  'P174' 350
  'P175' 350
  'P176' 350
  'P177' 350
  'P178' 350
  'P179' 350
  'P180' 350
  'P181' 350
  'P182' 350
  'P183' 350
  'P184' 350
  'P185' 350
  'P186' 350
  'P187' 350
  'P188' 350
  'P189' 350
  'P190' 350
  'P191' 350
  'P192' 350
  'P193' 350
  'P194' 350
  'P195' 350
  'P196' 350
  'P197' 350
  'P198' 350
  'P199' 350
  'P200' 350
;
param fecha :=
  'P1' 45984
  'P2' 45984
  'P3' 45985
  'P4' 45984
  'P5' 45984
  'P6' 45984
  'P7' 45984
  'P8' 45984
  'P9' 45984
  'P10' 45984
  'P11' 45985
  'P12' 45984
  'P13' 45985
  'P14' 45984
  'P15' 45984
  'P16' 45984
  'P17' 45985
  'P18' 45984
  'P19' 45984
  'P20' 45984
  'P21' 45984
  'P22' 45984
  'P23' 45984
  'P24' 45984
  'P25' 45984
  'P26' 45984
  'P27' 45984
  'P28' 45984
  'P29' 45984
  'P30' 45984
  'P31' 45984
  'P32' 45984
  'P33' 45984
  'P34' 45984
  'P35' 45985
  'P36' 45984
  'P37' 45984
  'P38' 45984
  'P39' 45985
  'P40' 45984
  'P41' 45984
  'P42' 45984
  'P43' 45984
  'P44' 45984
  'P45' 45984
  'P46' 45984
  'P47' 45985
  'P48' 45984
  'P49' 45984
  'P50' 45984
  'P51' 45985
  'P52' 45984
  'P53' 45984
  'P54' 45984
  'P55' 45985
  'P56' 45984
  'P57' 45985
  'P58' 45985
  'P59' 45985
  'P60' 45984
  'P61' 45984
  'P62' 45984
  'P63' 45984
  'P64' 45984
  'P65' 45984
  'P66' 45984
  'P67' 45985
  'P68' 45985
  'P69' 45984
  'P70' 45984
  'P71' 45984
  'P72' 45984
  'P73' 45984
  'P74' 45984
  'P75' 45984
  'P76' 45985
  'P77' 45985
  'P78' 45984
  'P79' 45985
  'P80' 45985
  'P81' 45984
  'P82' 45984
  'P83' 45984
  'P84' 45984
  'P85' 45984
  'P86' 45984
  'P87' 45984
  'P88' 45984
  'P89' 45984
  'P90' 45984
  'P91' 45985
  'P92' 45985
  'P93' 45985
  'P94' 45984
  'P95' 45984
  'P96' 45984
  'P97' 45984
  'P98' 45984
  'P99' 45985
  'P100' 45985
  'P101' 45984
  'P102' 45984
  'P103' 45985
  'P104' 45985
  'P105' 45984
  'P106' 45984
  'P107' 45985
  'P108' 45984
  'P109' 45984
  'P110' 45985
  'P111' 45984
  'P112' 45985
  'P113' 45985
  'P114' 45984
  'P115' 45984
  'P116' 45985
  'P117' 45984
  'P118' 45984
  'P119' 45985
  'P120' 45984
  'P121' 45984
  'P122' 45984
  'P123' 45984
  'P124' 45985
  'P125' 45984
  'P126' 45984
  'P127' 45984
  'P128' 45984
  'P129' 45984
  'P130' 45984
  'P131' 45985
  'P132' 45984
  'P133' 45984
  'P134' 45985
  'P135' 45984
  'P136' 45984
  'P137' 45984
  'P138' 45984
  'P139' 45984
  'P140' 45984
  'P141' 45984
  'P142' 45984
  'P143' 45984
  'P144' 45985
  'P145' 45984
  'P146' 45984
  'P147' 45985
  'P148' 45985
  'P149' 45985
  'P150' 45985
  'P151' 45984
  'P152' 45985
  'P153' 45985
  'P154' 45985
  'P155' 45985
  'P156' 45984
  'P157' 45984
  'P158' 45984
  'P159' 45985
  'P160' 45984
  'P161' 45985
  'P162' 45985
  'P163' 45984
  'P164' 45984
  'P165' 45984
  'P166' 45984
  'P167' 45984
  'P168' 45985
  'P169' 45985
  'P170' 45984
  'P171' 45984
  'P172' 45984
  'P173' 45984
  'P174' 45984
  'P175' 45985
  'P176' 45984
  'P177' 45985
  'P178' 45984
  'P179' 45984
  'P180' 45984
  'P181' 45984
  'P182' 45984
  'P183' 45984
  'P184' 45984
  'P185' 45985
  'P186' 45985
  'P187' 45984
  'P188' 45984
  'P189' 45985
  'P190' 45984
  'P191' 45984
  'P192' 45984
  'P193' 45985
  'P194' 45984
  'P195' 45985
  'P196' 45984
  'P197' 45984
  'P198' 45985
  'P199' 45984
  'P200' 45984
;
param cli :=
  'P1' 'C15'
  'P2' 'C12'
  'P3' 'C12'
  'P4' 'C14'
  'P5' 'C14'
  'P6' 'C5'
  'P7' 'C7'
  'P8' 'C13'
  'P9' 'C1'
  'P10' 'C15'
  'P11' 'C7'
  'P12' 'C4'
  'P13' 'C7'
  'P14' 'C12'
  'P15' 'C13'
  'P16' 'C4'
  'P17' 'C3'
  'P18' 'C6'
  'P19' 'C7'
  'P20' 'C2'
  'P21' 'C15'
  'P22' 'C7'
  'P23' 'C14'
  'P24' 'C3'
  'P25' 'C4'
  'P26' 'C6'
  'P27' 'C4'
  'P28' 'C9'
  'P29' 'C4'
  'P30' 'C11'
  'P31' 'C8'
  'P32' 'C14'
  'P33' 'C1'
  'P34' 'C1'
  'P35' 'C10'
  'P36' 'C10'
  'P37' 'C2'
  'P38' 'C2'
  'P39' 'C9'
  'P40' 'C6'
  'P41' 'C9'
  'P42' 'C3'
  'P43' 'C5'
  'P44' 'C5'
  'P45' 'C1'
  'P46' 'C4'
  'P47' 'C13'
  'P48' 'C5'
  'P49' 'C14'
  'P50' 'C1'
  'P51' 'C13'
  'P52' 'C3'
  'P53' 'C13'
  'P54' 'C5'
  'P55' 'C13'
  'P56' 'C14'
  'P57' 'C8'
  'P58' 'C1'
  'P59' 'C11'
  'P60' 'C15'
  'P61' 'C11'
  'P62' 'C14'
  'P63' 'C14'
  'P64' 'C1'
  'P65' 'C10'
  'P66' 'C12'
  'P67' 'C6'
  'P68' 'C4'
  'P69' 'C5'
  'P70' 'C12'
  'P71' 'C4'
  'P72' 'C2'
  'P73' 'C2'
  'P74' 'C11'
  'P75' 'C15'
  'P76' 'C6'
  'P77' 'C1'
  'P78' 'C13'
  'P79' 'C4'
  'P80' 'C8'
  'P81' 'C11'
  'P82' 'C12'
  'P83' 'C10'
  'P84' 'C15'
  'P85' 'C11'
  'P86' 'C6'
  'P87' 'C15'
  'P88' 'C14'
  'P89' 'C6'
  'P90' 'C4'
  'P91' 'C15'
  'P92' 'C8'
  'P93' 'C12'
  'P94' 'C15'
  'P95' 'C10'
  'P96' 'C11'
  'P97' 'C8'
  'P98' 'C5'
  'P99' 'C12'
  'P100' 'C6'
  'P101' 'C13'
  'P102' 'C13'
  'P103' 'C1'
  'P104' 'C14'
  'P105' 'C12'
  'P106' 'C8'
  'P107' 'C2'
  'P108' 'C13'
  'P109' 'C14'
  'P110' 'C10'
  'P111' 'C11'
  'P112' 'C3'
  'P113' 'C6'
  'P114' 'C5'
  'P115' 'C9'
  'P116' 'C4'
  'P117' 'C4'
  'P118' 'C11'
  'P119' 'C2'
  'P120' 'C14'
  'P121' 'C3'
  'P122' 'C3'
  'P123' 'C11'
  'P124' 'C9'
  'P125' 'C7'
  'P126' 'C1'
  'P127' 'C9'
  'P128' 'C8'
  'P129' 'C15'
  'P130' 'C15'
  'P131' 'C1'
  'P132' 'C1'
  'P133' 'C11'
  'P134' 'C11'
  'P135' 'C6'
  'P136' 'C15'
  'P137' 'C4'
  'P138' 'C5'
  'P139' 'C14'
  'P140' 'C8'
  'P141' 'C11'
  'P142' 'C4'
  'P143' 'C13'
  'P144' 'C9'
  'P145' 'C3'
  'P146' 'C9'
  'P147' 'C7'
  'P148' 'C5'
  'P149' 'C10'
  'P150' 'C8'
  'P151' 'C10'
  'P152' 'C4'
  'P153' 'C3'
  'P154' 'C12'
  'P155' 'C4'
  'P156' 'C4'
  'P157' 'C8'
  'P158' 'C1'
  'P159' 'C3'
  'P160' 'C5'
  'P161' 'C4'
  'P162' 'C13'
  'P163' 'C6'
  'P164' 'C14'
  'P165' 'C15'
  'P166' 'C15'
  'P167' 'C12'
  'P168' 'C15'
  'P169' 'C4'
  'P170' 'C1'
  'P171' 'C4'
  'P172' 'C8'
  'P173' 'C2'
  'P174' 'C1'
  'P175' 'C1'
  'P176' 'C15'
  'P177' 'C10'
  'P178' 'C14'
  'P179' 'C9'
  'P180' 'C3'
  'P181' 'C6'
  'P182' 'C11'
  'P183' 'C8'
  'P184' 'C6'
  'P185' 'C4'
  'P186' 'C15'
  'P187' 'C5'
  'P188' 'C15'
  'P189' 'C15'
  'P190' 'C8'
  'P191' 'C3'
  'P192' 'C6'
  'P193' 'C8'
  'P194' 'C1'
  'P195' 'C11'
  'P196' 'C12'
  'P197' 'C9'
  'P198' 'C9'
  'P199' 'C12'
  'P200' 'C1'
;
